<instance format="XCSP3" type="CSP">
  <variables>
    <array id="p" size="[4][8]"> 0..7 </array>
    <array id="v" size="[4][8]"> 0..7 </array>
  </variables>
  <constraints>
    <group>
      <allDifferent> %... </allDifferent>
      <args> p[0][] </args>
      <args> p[1][] </args>
      <args> p[2][] </args>
      <args> p[3][] </args>
    </group>
    <block>
      <group>
        <element>
          <list> v[0][] </list>
          <index> %0 </index>
          <value> %1 </value>
        </element>
        <args> p[0][0] 0 </args>
        <args> p[0][1] 1 </args>
        <args> p[0][2] 2 </args>
        <args> p[0][3] 3 </args>
        <args> p[0][4] 4 </args>
        <args> p[0][5] 5 </args>
        <args> p[0][6] 6 </args>
        <args> p[0][7] 7 </args>
      </group>
      <group>
        <element>
          <list> v[1][] </list>
          <index> %0 </index>
          <value> %1 </value>
        </element>
        <args> p[1][0] 0 </args>
        <args> p[1][1] 1 </args>
        <args> p[1][2] 2 </args>
        <args> p[1][3] 3 </args>
        <args> p[1][4] 4 </args>
        <args> p[1][5] 5 </args>
        <args> p[1][6] 6 </args>
        <args> p[1][7] 7 </args>
      </group>
      <group>
        <element>
          <list> v[2][] </list>
          <index> %0 </index>
          <value> %1 </value>
        </element>
        <args> p[2][0] 0 </args>
        <args> p[2][1] 1 </args>
        <args> p[2][2] 2 </args>
        <args> p[2][3] 3 </args>
        <args> p[2][4] 4 </args>
        <args> p[2][5] 5 </args>
        <args> p[2][6] 6 </args>
        <args> p[2][7] 7 </args>
      </group>
      <group>
        <element>
          <list> v[3][] </list>
          <index> %0 </index>
          <value> %1 </value>
        </element>
        <args> p[3][0] 0 </args>
        <args> p[3][1] 1 </args>
        <args> p[3][2] 2 </args>
        <args> p[3][3] 3 </args>
        <args> p[3][4] 4 </args>
        <args> p[3][5] 5 </args>
        <args> p[3][6] 6 </args>
        <args> p[3][7] 7 </args>
      </group>
    </block>
    <group>
      <extension>
        <list> %0 %1 %2 %3 </list>
        <supports> (0,0,0,0)(0,1,1,1)(1,0,2,2)(1,1,3,3)(2,2,0,4)(2,3,1,5)(3,2,2,6)(3,3,3,7)(4,4,4,0)(4,5,5,1)(5,4,6,2)(5,5,7,3)(6,6,4,4)(6,7,5,5)(7,6,6,6)(7,7,7,7) </supports>
      </extension>
      <args> v[][0] </args>
      <args> v[][1] </args>
      <args> v[][2] </args>
      <args> v[][3] </args>
      <args> v[][4] </args>
      <args> v[][5] </args>
      <args> v[][6] </args>
      <args> v[][7] </args>
    </group>
  </constraints>
</instance>
